(set-info :smt-lib-version 2.6)
(set-logic QF_UF)
(set-info :source |
Generated by: Aman Goel (amangoel@umich.edu), Karem A. Sakallah (karem@umich.edu)
Generated on: 2018-04-06

Generated by the tool Averroes 2 (successor of [1]) which implements safety property
verification on hardware systems.

This SMT problem belongs to a set of SMT problems generated by applying Averroes 2
to benchmarks derived from [2-5].

A total of 412 systems (345 from [2], 19 from [3], 26 from [4], 22 from [5]) were
syntactically converted from their original formats (using [6, 7]), and given to 
Averroes 2 to perform property checking with abstraction (wide bit-vectors -> terms, 
wide operators -> UF) using SMT solvers [8, 9].

[1] Lee S., Sakallah K.A. (2014) Unbounded Scalable Verification Based on Approximate
Property-Directed Reachability and Datapath Abstraction. In: Biere A., Bloem R. (eds)
Computer Aided Verification. CAV 2014. Lecture Notes in Computer Science, vol 8559.
Springer, Cham
[2] http://fmv.jku.at/aiger/index.html#beem
[3] http://www.cs.cmu.edu/~modelcheck/vcegar
[4] http://www.cprover.org/hardware/v2c
[5] http://github.com/aman-goel/verilogbench
[6] http://www.clifford.at/yosys
[7] http://github.com/chengyinwu/V3
[8] http://github.com/Z3Prover/z3
[9] http://github.com/SRI-CSL/yices2

id: sw_loop_v
query-maker: "Z3"
query-time: 0.755000 ms
query-class: abstract
query-category: assume
query-type: mus_min
status: sat
|)
(set-info :license "https://creativecommons.org/licenses/by/4.0/")
(set-info :category "industrial")

; 
(set-info :status sat)
(declare-sort utt6 0)
(declare-fun z$n8s6 () utt6)
(declare-fun z$n4s6 () utt6)
(declare-fun z$n13s6 () utt6)
(declare-fun z$n7s6 () utt6)
(declare-fun z$n0s6 () utt6)
(declare-fun z$n22s6 () utt6)
(declare-fun z$n18s6 () utt6)
(declare-fun z$n23s6 () utt6)
(declare-fun z$n5s6 () utt6)
(declare-fun z$n16s6 () utt6)
(declare-fun z$n21s6 () utt6)
(declare-fun z$n2s6 () utt6)
(declare-fun z$n17s6 () utt6)
(declare-fun z$n3s6 () utt6)
(declare-fun z$n19s6 () utt6)
(declare-fun z$n1s6 () utt6)
(declare-fun X () utt6)
(declare-fun X$next () utt6)
(declare-fun Add_6_6_6 (utt6 utt6) utt6)
(declare-fun z$23 () utt6)
(declare-fun z$25 () utt6)
(declare-fun z$27 () utt6)
(declare-fun z$29 () utt6)
(declare-fun z$295 () utt6)
(declare-fun L1 () Bool)
(declare-fun z$2 () Bool)
(declare-fun L2 () Bool)
(declare-fun z$4 () Bool)
(declare-fun L3 () Bool)
(declare-fun z$6 () Bool)
(declare-fun L5 () Bool)
(declare-fun z$10 () Bool)
(declare-fun L0 () Bool)
(declare-fun z$99 () Bool)
(declare-fun LoneHot () Bool)
(declare-fun z$168 () Bool)
(declare-fun L4 () Bool)
(declare-fun z$440 () Bool)
(declare-fun z$441 () Bool)
(declare-fun z$8 () Bool)
(declare-fun z$516 () Bool)
(declare-fun z$517 () Bool)
(declare-fun z$578 () Bool)
(declare-fun z$579 () Bool)
(declare-fun Le_1_6_6 (utt6 utt6) Bool)
(declare-fun z$39 () Bool)
(declare-fun z$59 () Bool)
(declare-fun z$849 () Bool)
(declare-fun z$850 () Bool)
(declare-fun z$358 () Bool)
(declare-fun z$835 () Bool)
(declare-fun z$836 () Bool)
(declare-fun z$20 () Bool)
(declare-fun z$183 () Bool)
(declare-fun z$239 () Bool)
(declare-fun z$240 () Bool)
(declare-fun z$248 () Bool)
(declare-fun z$249 () Bool)
(declare-fun z$74 () Bool)
(declare-fun z$752 () Bool)
(declare-fun z$753 () Bool)
(declare-fun L6 () Bool)
(declare-fun z$12 () Bool)
(declare-fun prop () Bool)
(declare-fun z$167 () Bool)
(declare-fun L6$next () Bool)
(declare-fun z$176 () Bool)
(declare-fun prop$next () Bool)
(declare-fun z$177 () Bool)
(declare-fun z$192 () Bool)
(declare-fun z$195 () Bool)
(declare-fun z$214 () Bool)
(declare-fun z$215 () Bool)
(declare-fun z$217 () Bool)
(declare-fun z$16 () Bool)
(declare-fun z$213 () Bool)
(declare-fun z$216 () Bool)
(declare-fun z$320 () Bool)
(declare-fun z$322 () Bool)
(declare-fun z$257 () Bool)
(declare-fun z$260 () Bool)
(declare-fun z$321 () Bool)
(declare-fun z$326 () Bool)
(declare-fun z$196 () Bool)
(declare-fun z$31 () Bool)
(declare-fun z$345 () Bool)
(declare-fun z$346 () Bool)
(declare-fun z$369 () Bool)
(declare-fun z$387 () Bool)
(declare-fun z$389 () Bool)
(declare-fun z$368 () Bool)
(declare-fun z$386 () Bool)
(declare-fun z$388 () Bool)
(declare-fun z$642 () Bool)
(declare-fun z$643 () Bool)
(declare-fun z$1052 () Bool)
(declare-fun z$1075 () Bool)
(declare-fun z$1076 () Bool)
(declare-fun z$1091 () Bool)
(declare-fun z$1130 () Bool)
(declare-fun z$1131 () Bool)
(declare-fun z$60 () Bool)
(declare-fun z$62 () Bool)
(declare-fun L4$next () Bool)
(declare-fun z$64 () Bool)
(declare-fun z$87 () Bool)
(declare-fun z$89 () Bool)
(declare-fun z$91 () Bool)
(declare-fun z$93 () Bool)
(declare-fun z$95 () Bool)
(declare-fun z$97 () Bool)
(declare-fun z$100 () Bool)
(declare-fun z$102 () Bool)
(declare-fun z$104 () Bool)
(declare-fun z$106 () Bool)
(declare-fun z$108 () Bool)
(declare-fun z$110 () Bool)
(declare-fun z$112 () Bool)
(declare-fun z$114 () Bool)
(declare-fun z$116 () Bool)
(declare-fun z$118 () Bool)
(declare-fun z$120 () Bool)
(declare-fun z$122 () Bool)
(declare-fun z$124 () Bool)
(declare-fun z$126 () Bool)
(declare-fun z$128 () Bool)
(declare-fun z$130 () Bool)
(declare-fun z$132 () Bool)
(declare-fun z$134 () Bool)
(declare-fun z$136 () Bool)
(declare-fun z$138 () Bool)
(declare-fun z$140 () Bool)
(declare-fun z$142 () Bool)
(declare-fun z$144 () Bool)
(declare-fun z$146 () Bool)
(declare-fun z$148 () Bool)
(declare-fun z$150 () Bool)
(declare-fun z$152 () Bool)
(declare-fun z$154 () Bool)
(declare-fun z$156 () Bool)
(declare-fun z$158 () Bool)
(declare-fun z$160 () Bool)
(declare-fun z$162 () Bool)
(declare-fun LoneHot$next () Bool)
(declare-fun z$164 () Bool)
(declare-fun z$1369 () Bool)
(declare-fun z$1370 () Bool)
(declare-fun z$1424 () Bool)
(declare-fun z$1425 () Bool)
(declare-fun z$862 () Bool)
(declare-fun z$863 () Bool)
(declare-fun z$41 () Bool)
(declare-fun z$43 () Bool)
(declare-fun z$45 () Bool)
(declare-fun L1$next () Bool)
(declare-fun z$47 () Bool)
(declare-fun z$1444 () Bool)
(declare-fun p$0 () Bool)
(declare-fun p$1 () Bool)
(declare-fun p$2 () Bool)
(declare-fun p$3 () Bool)
(assert
 (and (distinct z$n1s6 z$n19s6 z$n3s6 z$n17s6 z$n2s6 z$n21s6 z$n16s6 z$n5s6 z$n23s6 z$n18s6 z$n22s6 z$n0s6 z$n7s6 z$n13s6 z$n4s6 z$n8s6) true))
(assert
 (let (($x54 (not L1)))
 (= z$2 $x54)))
(assert
 (let (($x58 (not L2)))
 (= z$4 $x58)))
(assert
 (let (($x62 (not L3)))
 (= z$6 $x62)))
(assert
 (let (($x70 (not L5)))
 (= z$10 $x70)))
(assert
 (let (($x149 (not L0)))
 (= z$99 $x149)))
(assert
 (let (($x2729 (not LoneHot)))
 (= z$168 $x2729)))
(assert
 (= z$440 (and z$2 z$4 z$6 L4 z$10 z$99 z$168)))
(assert
 (= z$441 (not z$440)))
(assert
 (let (($x66 (not L4)))
 (= z$8 $x66)))
(assert
 (= z$516 (and z$2 z$4 L3 z$8 z$10 z$99 z$168)))
(assert
 (= z$517 (not z$516)))
(assert
 (= z$578 (and z$2 L2 z$6 z$8 z$10 z$99 z$168)))
(assert
 (= z$579 (not z$578)))
(assert
 (let (($x106 (Le_1_6_6 X z$n17s6)))
 (= z$39 $x106)))
(assert
 (let (($x110 (not z$39)))
 (= z$59 $x110)))
(assert
 (= z$849 (and z$4 z$6 z$8 z$10 z$59)))
(assert
 (= z$850 (not z$849)))
(assert
 (let (($x2742 (= X z$n19s6)))
 (= z$358 $x2742)))
(assert
 (= z$835 (and L4 LoneHot z$358)))
(assert
 (= z$836 (not z$835)))
(assert
 (let (($x82 (Le_1_6_6 X z$n19s6)))
 (= z$20 $x82)))
(assert
 (let (($x613 (not z$20)))
 (= z$183 $x613)))
(assert
 (= z$239 (and L4 LoneHot z$183)))
(assert
 (= z$240 (not z$239)))
(assert
 (= z$248 (and L1 LoneHot z$183)))
(assert
 (= z$249 (not z$248)))
(assert
 (let (($x613 (not z$20)))
 (= z$74 $x613)))
(assert
 (= z$752 (and L1 LoneHot z$74)))
(assert
 (= z$753 (not z$752)))
(assert
 (let (($x35 (not L6)))
 (= z$12 $x35)))
(assert
 (= z$167 (= prop z$12)))
(assert
 (= z$176 (not L6$next)))
(assert
 (= z$177 (= prop$next z$176)))
(assert
 (let (($x287 (Le_1_6_6 X$next z$n19s6)))
 (= z$192 $x287)))
(assert
 (let (($x290 (not z$192)))
 (= z$195 $x290)))
(assert
 (let (($x384 (= X$next z$n1s6)))
 (= z$214 $x384)))
(assert
 (= z$215 (and z$195 z$214)))
(assert
 (= z$217 (not z$215)))
(assert
 (let (($x75 (= X z$n1s6)))
 (= z$16 $x75)))
(assert
 (= z$213 (and z$74 z$16)))
(assert
 (= z$216 (not z$213)))
(assert
 (= z$320 (and z$59 z$16)))
(assert
 (= z$322 (not z$320)))
(assert
 (let (($x697 (Le_1_6_6 X$next z$n17s6)))
 (= z$257 $x697)))
(assert
 (let (($x683 (not z$257)))
 (= z$260 $x683)))
(assert
 (= z$321 (and z$260 z$214)))
(assert
 (= z$326 (not z$321)))
(assert
 (= z$196 (and (distinct X$next z$n19s6) true)))
(assert
 (let ((?x86 (Add_6_6_6 X z$n3s6)))
 (= z$23 ?x86)))
(assert
 (let ((?x90 (ite z$20 z$23 X)))
 (= z$25 ?x90)))
(assert
 (let ((?x94 (ite L1 z$25 X)))
 (= z$27 ?x94)))
(assert
 (let ((?x98 (ite LoneHot z$27 X)))
 (= z$29 ?x98)))
(assert
 (let (($x102 (= X$next z$29)))
 (= z$31 $x102)))
(assert
 (= z$345 (and z$196 z$195 z$39 z$31)))
(assert
 (= z$346 (not z$345)))
(assert
 (let ((?x1517 (Add_6_6_6 X$next z$n3s6)))
 (= z$295 ?x1517)))
(assert
 (let (($x2766 (= z$295 z$n19s6)))
 (= z$369 $x2766)))
(assert
 (= z$387 (and z$214 z$369)))
(assert
 (= z$389 (not z$387)))
(assert
 (let (($x2051 (= z$23 z$n19s6)))
 (= z$368 $x2051)))
(assert
 (= z$386 (and z$16 z$368)))
(assert
 (= z$388 (not z$386)))
(assert
 (= z$642 (and z$16 z$369 z$31)))
(assert
 (= z$643 (not z$642)))
(assert
 (let (($x3150 (= X z$n4s6)))
 (= z$1052 $x3150)))
(assert
 (= z$1075 (and z$1052 z$369 z$31)))
(assert
 (= z$1076 (not z$1075)))
(assert
 (= z$1091 (and (distinct X$next z$n4s6) true)))
(assert
 (= z$1130 (and L1 LoneHot z$16 z$1091 z$31)))
(assert
 (= z$1131 (not z$1130)))
(assert
 (= z$60 (and L3 z$59)))
(assert
 (let (($x117 (ite LoneHot z$60 L4)))
 (= z$62 $x117)))
(assert
 (= z$64 (= L4$next z$62)))
(assert
 (= z$87 (and L0 z$2)))
(assert
 (= z$89 (and z$87 z$4)))
(assert
 (= z$91 (and z$89 z$6)))
(assert
 (= z$93 (and z$91 z$8)))
(assert
 (= z$95 (and z$93 z$10)))
(assert
 (= z$97 (and z$95 z$12)))
(assert
 (= z$100 (and z$99 L1)))
(assert
 (= z$102 (and z$100 z$4)))
(assert
 (= z$104 (and z$102 z$6)))
(assert
 (= z$106 (and z$104 z$8)))
(assert
 (= z$108 (and z$106 z$10)))
(assert
 (= z$110 (and z$108 z$12)))
(assert
 (let (($x176 (or z$97 z$110)))
 (= z$112 $x176)))
(assert
 (= z$114 (and z$99 z$2)))
(assert
 (= z$116 (and z$114 L2)))
(assert
 (= z$118 (and z$116 z$6)))
(assert
 (= z$120 (and z$118 z$8)))
(assert
 (= z$122 (and z$120 z$10)))
(assert
 (= z$124 (and z$122 z$12)))
(assert
 (let (($x204 (or z$112 z$124)))
 (= z$126 $x204)))
(assert
 (= z$128 (and z$114 z$4)))
(assert
 (= z$130 (and z$128 L3)))
(assert
 (= z$132 (and z$130 z$8)))
(assert
 (= z$134 (and z$132 z$10)))
(assert
 (= z$136 (and z$134 z$12)))
(assert
 (let (($x228 (or z$126 z$136)))
 (= z$138 $x228)))
(assert
 (= z$140 (and z$128 z$6)))
(assert
 (= z$142 (and z$140 L4)))
(assert
 (= z$144 (and z$142 z$10)))
(assert
 (= z$146 (and z$144 z$12)))
(assert
 (let (($x248 (or z$138 z$146)))
 (= z$148 $x248)))
(assert
 (= z$150 (and z$140 z$8)))
(assert
 (= z$152 (and z$150 L5)))
(assert
 (= z$154 (and z$152 z$12)))
(assert
 (let (($x264 (or z$148 z$154)))
 (= z$156 $x264)))
(assert
 (= z$158 (and z$150 z$10)))
(assert
 (= z$160 (and z$158 L6)))
(assert
 (let (($x276 (or z$156 z$160)))
 (= z$162 $x276)))
(assert
 (= z$164 (= LoneHot$next z$162)))
(assert
 (= z$1369 (and L0 L3 LoneHot)))
(assert
 (= z$1370 (not z$1369)))
(assert
 (= z$1424 (and z$2 z$4 L3 z$8 z$10 z$99 z$358)))
(assert
 (= z$1425 (not z$1424)))
(assert
 (= z$862 (and z$2 z$4 z$8 z$10 z$74)))
(assert
 (= z$863 (not z$862)))
(assert
 (= z$41 (and L3 z$39)))
(assert
 (let (($x324 (or L0 z$41)))
 (= z$43 $x324)))
(assert
 (let (($x493 (ite LoneHot z$43 L1)))
 (= z$45 $x493)))
(assert
 (= z$47 (= L1$next z$45)))
(assert
 (let (($x1933 (and z$441 z$517 z$579 z$850 z$836 z$240 z$249 z$753 z$167 prop z$177 z$217 z$216 z$322 z$326 z$346 z$389 z$388 z$643 z$1076 z$1131 z$31 z$64 z$164 z$1370 z$1425 z$863 z$47)))
 (= z$1444 $x1933)))
(assert
 z$1444)
(assert
 (=> p$0 L1$next))
(assert
 (=> p$1 LoneHot$next))
(assert
 (let (($x287 (Le_1_6_6 X$next z$n19s6)))
 (let (($x288 (= z$192 $x287)))
 (=> p$2 $x288))))
(assert
 (let (($x290 (not z$192)))
 (let (($x298 (= z$195 $x290)))
 (=> p$2 $x298))))
(assert
 (=> p$2 z$195))
(assert
 (let (($x305 (= z$196 (and (distinct X$next z$n19s6) true))))
 (=> p$3 $x305)))
(assert
 (=> p$3 z$196))
(check-sat)
(assert p$1)
(assert p$3)
(assert p$0)
(set-info :status sat)
(check-sat)
(exit)
